53
25 46 186
46 12 324
12 13 206
13 51 319
51 10 399
10 50 285
50 32 475
32 42 365
42 9 308
9 8 83
8 7 183
7 40 64
40 18 92
18 44 75
44 2 220
2 16 217
16 20 253
20 41 290
41 6 76
6 1 45
1 52 187
52 29 480
29 28 260
28 49 191
49 19 35
19 22 94
22 30 152
30 17 80
17 21 116
21 31 97
31 48 50
48 35 81
35 34 15
34 33 21
33 43 80
43 15 132
15 45 156
45 36 139
36 38 56
38 39 43
39 37 35
37 47 49
47 23 16
23 4 32
4 14 25
14 5 40
5 3 70
3 24 109
24 11 245
11 27 182
27 26 110
26 25 126
26 25 0

